c Random generated cnf formula, satisfiable: true
p cnf 10 50
6 -10 -2 0
9 10 -7 0
-9 1 10 0
2 10 4 0
-5 -9 -7 0
6 -5 -8 0
7 -4 -5 0
7 -6 8 0
-3 -5 -6 0
4 -10 -2 0
-7 -10 -8 0
6 -1 -3 0
-6 2 -10 0
7 -8 -10 0
9 7 4 0
-2 3 -9 0
9 -1 10 0
-6 -8 -4 0
-2 -1 10 0
-7 -10 6 0
-7 6 5 0
-4 10 -6 0
9 7 -10 0
10 2 3 0
-8 1 -9 0
-1 6 -10 0
-7 3 -5 0
-1 -10 7 0
-8 -1 -6 0
1 -8 -2 0
8 6 10 0
6 4 5 0
2 -8 -7 0
2 1 -3 0
-5 9 4 0
7 -3 -6 0
-5 8 -3 0
9 -10 -8 0
9 -4 5 0
1 -9 -8 0
9 1 5 0
-9 -2 3 0
2 -10 -4 0
-3 1 9 0
-7 -8 -1 0
-8 4 -5 0
8 4 6 0
-5 1 3 0
-2 9 -6 0
-2 9 -5 0
